data;

param num_top:=6;

#nodes and edges of the physical network
param n := 10;

set E := (1,2) (1,3) (1,7) (2,4) (2,7) (3,5) (4,8) (5,6) (5,7) (6,7) (6,9) (7,8) (7,9) (8,10) (9,10) ;

#nodes and edges of the virtual networks
set Nl[1] := 1 6 8 2 ;
set Nl[2] := 10 5 9 4 ;
set Nl[3] := 7 9 8 1 3 ;
set Nl[4] := 2 8 5 6 1 ;
set Nl[5] := 2 1 3 9 ;
set Nl[6] := 8 1 3 5 6 ;

set El[1] := (1,6) (6,8) (2,8) (1,2) ;
set El[2] := (5,10) (5,9) (4,9) (4,10) (9,10) (4,5) ;
set El[3] := (7,9) (8,9) (1,8) (1,3) (3,7) ;
set El[4] := (2,8) (5,8) (5,6) (1,6) (1,2) (2,6) (2,5) (6,8) (1,8) (1,5) ;
set El[5] := (1,2) (1,3) (3,9) (2,9) (2,3) (1,9) ;
set El[6] := (1,8) (1,3) (3,5) (5,6) (6,8) ;
